c instancia_05  vars=15  clausulas=25  k=2
p cnf 15 25
6 -14 0
1 11 0
12 -3 0
7 2 0
-11 14 0
11 -6 0
-11 -8 0
-5 -7 0
11 -9 0
1 -13 0
-14 10 0
-12 7 0
-3 -13 0
-5 -7 0
4 -12 0
7 9 0
-6 -15 0
-10 -2 0
14 -1 0
9 6 0
2 9 0
-8 14 0
8 12 0
-13 -8 0
3 7 0
